
******************************************************************************
This program contains Ipopt, a library for large-scale nonlinear optimization.
 Ipopt is released as open source code under the Eclipse Public License (EPL).
         For more information visit http://projects.coin-or.org/Ipopt
******************************************************************************

This is Ipopt version 3.12.6, running with linear solver ma57.

Number of nonzeros in equality constraint Jacobian...:     8988
Number of nonzeros in inequality constraint Jacobian.:     1500
Number of nonzeros in Lagrangian Hessian.............:     2500

Total number of variables............................:     4497
                     variables with only lower bounds:        0
                variables with lower and upper bounds:     2000
                     variables with only upper bounds:        0
Total number of equality constraints.................:     3000
Total number of inequality constraints...............:      500
        inequality constraints with only lower bounds:        0
   inequality constraints with lower and upper bounds:        0
        inequality constraints with only upper bounds:      500

iter    objective    inf_pr   inf_du lg(mu)  ||d||  lg(rg) alpha_du alpha_pr  ls
   0  1.6633485e+01 5.00e+01 7.43e-01  -1.0 0.00e+00    -  0.00e+00 0.00e+00   0
   1  1.6687586e+01 4.87e+01 1.36e+00  -1.0 9.99e-01    -  1.09e-02 2.58e-02f  1
   2  1.6790717e+01 4.71e+01 1.34e+00  -1.0 1.05e+00    -  4.59e-02 3.34e-02h  1
   3  1.7003053e+01 4.56e+01 6.03e+00  -1.0 1.96e+00    -  8.00e-02 3.10e-02h  1
   4  1.7441904e+01 4.46e+01 2.15e+01  -1.0 5.57e+00    -  5.05e-02 2.17e-02h  1
   5  1.7603019e+01 4.45e+01 1.18e+02  -1.0 1.46e+01    -  1.61e-02 2.86e-03h  1
   6  1.7663919e+01 4.45e+01 1.97e+02  -1.0 2.24e+01    -  4.31e-04 6.61e-04h  1
   7  1.8147057e+01 4.43e+01 1.57e+02  -1.0 2.31e+01    -  3.14e-03 4.93e-03h  1
   8  1.8187663e+01 4.42e+01 1.56e+02  -1.0 2.82e+01    -  4.16e-04 3.34e-04h  1
   9  1.8675357e+01 4.41e+01 1.93e+02  -1.0 2.84e+01    -  2.40e-03 3.85e-03h  1
iter    objective    inf_pr   inf_du lg(mu)  ||d||  lg(rg) alpha_du alpha_pr  ls
  10  1.8699396e+01 4.41e+01 2.33e+02  -1.0 3.17e+01    -  3.77e-04 1.80e-04h  1
  11  1.9210123e+01 4.39e+01 3.16e+02  -1.0 3.12e+01    -  2.06e-03 3.68e-03h  1
  12  1.9230976e+01 4.39e+01 2.84e+02  -1.0 2.99e+01    -  4.20e-04 1.64e-04h  1
  13  1.9744177e+01 4.37e+01 3.71e+02  -1.0 2.91e+01    -  2.07e-03 3.92e-03h  1
  14  1.9760022e+01 4.37e+01 3.40e+02  -1.0 2.38e+01    -  4.37e-04 1.43e-04h  1
  15  2.0130283e+01 4.36e+01 3.65e+02  -1.0 2.31e+01    -  2.00e-03 3.23e-03h  1
  16  2.0201431e+01 4.35e+01 4.65e+02  -1.0 2.09e+01    -  2.75e-03 6.55e-04h  1
  17  2.0630983e+01 4.34e+01 5.81e+02  -1.0 2.14e+01    -  2.28e-03 3.79e-03h  1
  18  2.0652247e+01 4.34e+01 2.80e+02  -1.0 2.12e+01    -  3.73e-04 1.96e-04h  1
  19  2.0997338e+01 4.32e+01 3.10e+02  -1.0 2.05e+01    -  2.12e-03 3.08e-03h  1
iter    objective    inf_pr   inf_du lg(mu)  ||d||  lg(rg) alpha_du alpha_pr  ls
  20  2.1106453e+01 4.32e+01 5.51e+02  -1.0 2.05e+01    -  3.49e-03 9.73e-04h  1
  21  2.1518209e+01 4.30e+01 5.45e+02  -1.0 2.15e+01    -  3.55e-03 3.50e-03h  1
Reallocating memory for MA57: lfact (96485)
  22  2.1660795e+01 4.30e+01 3.18e+02  -1.0 2.24e+01    -  1.80e-03 1.19e-03h  1
  23  2.2019531e+01 4.29e+01 3.29e+02  -1.0 2.28e+01    -  2.72e-03 2.91e-03h  1
  24  2.2317789e+01 4.28e+01 3.09e+02  -1.0 2.35e+01    -  2.93e-03 2.36e-03h  1
  25  2.2432814e+01 4.27e+01 1.27e+03  -1.0 2.51e+01    -  2.68e-04 8.84e-04h  1
  26  2.2710301e+01 4.26e+01 1.29e+03  -1.0 2.45e+01    -  3.06e-03 2.12e-03h  1
  27  2.3012389e+01 4.25e+01 1.29e+03  -1.0 2.57e+01    -  2.23e-03 2.23e-03h  1
  28  2.3261850e+01 4.25e+01 1.28e+03  -1.0 2.68e+01    -  2.21e-03 1.79e-03h  1
  29  2.3536943e+01 4.24e+01 1.29e+03  -1.0 2.78e+01    -  2.12e-04 1.92e-03h  1
iter    objective    inf_pr   inf_du lg(mu)  ||d||  lg(rg) alpha_du alpha_pr  ls
  30  2.3700785e+01 4.23e+01 1.28e+03  -1.0 2.78e+01    -  2.35e-03 1.14e-03h  1
  31  2.4009675e+01 4.23e+01 1.28e+03  -1.0 2.93e+01    -  1.78e-03 2.07e-03h  1
  32  2.4242119e+01 4.22e+01 1.28e+03  -1.0 3.05e+01    -  2.03e-03 1.51e-03h  1
  33  2.4479766e+01 4.21e+01 1.27e+03  -1.0 3.22e+01    -  1.68e-03 1.49e-03h  1
  34  2.4720378e+01 4.21e+01 1.27e+03  -1.0 3.36e+01    -  1.51e-03 1.46e-03h  1
  35  2.4959018e+01 4.20e+01 1.27e+03  -1.0 3.51e+01    -  9.81e-04 1.40e-03h  1
  36  2.5160176e+01 4.20e+01 1.27e+03  -1.0 3.65e+01    -  1.53e-03 1.15e-03h  1
  37  2.5394687e+01 4.19e+01 1.27e+03  -1.0 3.85e+01    -  1.40e-03 1.29e-03h  1
  38  2.5610044e+01 4.19e+01 1.27e+03  -1.0 4.05e+01    -  1.36e-03 1.14e-03h  1
  39  2.5838843e+01 4.18e+01 1.27e+03  -1.0 4.32e+01    -  1.39e-03 1.15e-03h  1
iter    objective    inf_pr   inf_du lg(mu)  ||d||  lg(rg) alpha_du alpha_pr  ls
  40  2.6066966e+01 4.18e+01 1.26e+03  -1.0 4.62e+01    -  1.45e-03 1.09e-03h  1
  41  2.6304225e+01 4.17e+01 1.26e+03  -1.0 4.99e+01    -  1.55e-03 1.08e-03f  1
  42  2.6551370e+01 4.17e+01 1.26e+03  -1.0 5.53e+01    -  9.76e-04 1.05e-03f  1
  43  2.6819571e+01 4.16e+01 1.26e+03  -1.0 5.53e+01    -  7.08e-04 1.17e-03f  1
  44  2.7001688e+01 4.16e+01 1.26e+03  -1.0 4.32e+01    -  7.92e-04 9.73e-04f  1
  45  2.7098384e+01 4.16e+01 1.26e+03  -1.0 3.48e+01    -  9.91e-04 6.05e-04f  1
  46  2.7276292e+01 4.15e+01 1.26e+03  -1.0 3.21e+01    -  9.78e-04 1.18e-03f  1
  47  2.7418192e+01 4.15e+01 1.25e+03  -1.0 2.65e+01    -  1.22e-03 1.07e-03f  1
  48  2.7544661e+01 4.14e+01 1.25e+03  -1.0 2.35e+01    -  1.22e-03 1.03e-03f  1
  49  2.7692953e+01 4.14e+01 1.25e+03  -1.0 2.16e+01    -  9.63e-04 1.26e-03f  1
iter    objective    inf_pr   inf_du lg(mu)  ||d||  lg(rg) alpha_du alpha_pr  ls
  50  2.7822705e+01 4.13e+01 1.25e+03  -1.0 1.98e+01    -  1.32e-03 1.16e-03f  1
  51  2.7944549e+01 4.13e+01 1.25e+03  -1.0 1.87e+01    -  1.25e-03 1.13e-03f  1
  52  2.8096468e+01 4.12e+01 1.25e+03  -1.0 1.79e+01    -  9.97e-04 1.44e-03f  1
  53  2.8227184e+01 4.12e+01 1.25e+03  -1.0 1.71e+01    -  1.34e-03 1.27e-03f  1
  54  2.8329175e+01 4.11e+01 1.24e+03  -1.0 1.66e+01    -  1.33e-03 1.01e-03h  1
  55  2.8501203e+01 4.11e+01 1.24e+03  -1.0 1.64e+01    -  9.95e-04 1.70e-03h  1
  56  2.8634897e+01 4.10e+01 1.24e+03  -1.0 1.60e+01    -  1.66e-03 1.34e-03h  1
  57  2.8712333e+01 4.10e+01 1.24e+03  -1.0 1.57e+01    -  1.42e-03 7.81e-04h  1
  58  2.8888119e+01 4.09e+01 1.24e+03  -1.0 1.60e+01    -  9.51e-04 1.75e-03h  1
  59  2.9023273e+01 4.08e+01 1.24e+03  -1.0 1.56e+01    -  1.49e-03 1.36e-03h  1
iter    objective    inf_pr   inf_du lg(mu)  ||d||  lg(rg) alpha_du alpha_pr  ls
  60  2.9071588e+01 4.08e+01 1.24e+03  -1.0 1.54e+01    -  8.73e-04 4.88e-04h  1
  61  2.9260785e+01 4.07e+01 1.23e+03  -1.0 1.58e+01    -  1.03e-03 1.87e-03h  1
  62  2.9368571e+01 4.07e+01 1.23e+03  -1.0 1.56e+01    -  1.66e-03 1.07e-03h  1
  63  2.9425386e+01 4.07e+01 1.23e+03  -1.0 1.55e+01    -  6.44e-04 5.64e-04h  1
  64  2.9624905e+01 4.06e+01 1.23e+03  -1.0 1.60e+01    -  9.78e-04 1.93e-03h  1
  65  2.9726776e+01 4.06e+01 1.23e+03  -1.0 1.59e+01    -  1.80e-03 9.86e-04h  1
  66  2.9776610e+01 4.05e+01 1.23e+03  -1.0 1.59e+01    -  5.63e-04 4.80e-04h  1
  67  2.9985076e+01 4.05e+01 1.22e+03  -1.0 1.66e+01    -  8.12e-04 1.94e-03h  1
  68  3.0094659e+01 4.04e+01 1.22e+03  -1.0 1.66e+01    -  1.78e-03 1.02e-03h  1
  69  3.0128765e+01 4.04e+01 1.22e+03  -1.0 1.65e+01    -  5.03e-04 3.16e-04h  1
iter    objective    inf_pr   inf_du lg(mu)  ||d||  lg(rg) alpha_du alpha_pr  ls
  70  3.0349884e+01 4.03e+01 1.22e+03  -1.0 1.74e+01    -  5.71e-04 1.97e-03h  1
  71  3.0474592e+01 4.03e+01 1.22e+03  -1.0 1.75e+01    -  1.83e-03 1.10e-03h  1
  72  3.0496599e+01 4.03e+01 1.22e+03  -1.0 1.71e+01    -  4.38e-04 1.96e-04h  1
  73  3.0687926e+01 4.02e+01 1.21e+03  -1.0 1.83e+01    -  3.84e-04 1.62e-03h  1
  74  3.0839599e+01 4.02e+01 1.21e+03  -1.0 1.84e+01    -  1.93e-03 1.27e-03h  1
  75  3.0880523e+01 4.01e+01 1.21e+03  -1.0 1.86e+01    -  1.28e-03 3.41e-04h  1
  76  3.1113493e+01 4.01e+01 1.20e+03  -1.0 1.95e+01    -  2.36e-04 1.85e-03h  1
  77  3.1264447e+01 4.00e+01 1.21e+03  -1.0 1.96e+01    -  1.80e-03 1.19e-03h  1
  78  3.1290380e+01 4.00e+01 1.21e+03  -1.0 1.94e+01    -  9.00e-04 2.07e-04h  1
  79  3.1526332e+01 3.99e+01 1.19e+03  -1.0 2.06e+01    -  1.70e-04 1.79e-03h  1
iter    objective    inf_pr   inf_du lg(mu)  ||d||  lg(rg) alpha_du alpha_pr  ls
  80  3.1675920e+01 3.99e+01 1.20e+03  -1.0 2.06e+01    -  1.77e-03 1.13e-03h  1
  81  3.1717237e+01 3.99e+01 1.22e+03  -1.0 2.06e+01    -  1.36e-03 3.13e-04h  1
  82  3.1789001e+01 3.99e+01 1.21e+03  -1.0 2.07e+01    -  1.48e-04 5.37e-04h  1
  83  3.1920830e+01 3.98e+01 3.71e+03  -1.0 2.16e+01    -  6.10e-04 9.52e-04h  1
  84  3.2111981e+01 3.98e+01 4.09e+03  -1.0 2.18e+01    -  1.77e-04 1.36e-03h  1
  85  3.2169023e+01 3.98e+01 4.04e+03  -1.0 2.17e+01    -  1.76e-03 4.09e-04h  1
  86  3.2189061e+01 3.97e+01 4.04e+03  -1.0 2.01e+01    -  2.00e-04 1.52e-04h  1
  87  3.2404798e+01 3.97e+01 4.04e+03  -1.0 2.26e+01    -  2.03e-04 1.48e-03h  1
  88  3.2530726e+01 3.97e+01 4.03e+03  -1.0 2.26e+01    -  1.45e-03 8.66e-04h  1
  89  3.2621788e+01 3.96e+01 4.03e+03  -1.0 2.26e+01    -  1.15e-03 6.26e-04h  1
iter    objective    inf_pr   inf_du lg(mu)  ||d||  lg(rg) alpha_du alpha_pr  ls
  90  3.2633744e+01 3.96e+01 4.03e+03  -1.0 2.02e+01    -  1.92e-04 8.96e-05h  1
  91  3.2707371e+01 3.96e+01 4.03e+03  -1.0 2.34e+01    -  1.35e-04 4.89e-04h  1
  92  3.2733325e+01 3.96e+01 8.85e+03  -1.0 2.35e+01    -  6.82e-04 1.71e-04h  1
  93  3.2964780e+01 3.95e+01 4.03e+03  -1.0 2.37e+01    -  2.33e-05 1.51e-03h  1
  94  3.3077409e+01 3.95e+01 4.02e+03  -1.0 2.34e+01    -  1.53e-03 7.43e-04h  1
  95  3.3083050e+01 3.95e+01 4.02e+03  -1.0 2.01e+01    -  1.84e-04 4.21e-05h  1
  96  3.3255441e+01 3.95e+01 4.02e+03  -1.0 2.41e+01    -  7.52e-05 1.10e-03h  1
Reallocating memory for MA57: lfact (101399)
  97  3.3373105e+01 3.94e+01 4.02e+03  -1.0 2.40e+01    -  1.36e-03 7.54e-04h  1
  98  3.3423808e+01 3.94e+01 4.01e+03  -1.0 2.38e+01    -  1.11e-03 3.27e-04h  1
  99  3.3475573e+01 3.94e+01 7.45e+03  -1.0 2.38e+01    -  7.70e-04 3.32e-04h  1
iter    objective    inf_pr   inf_du lg(mu)  ||d||  lg(rg) alpha_du alpha_pr  ls
 100  3.3540031e+01 3.94e+01 5.19e+03  -1.0 2.35e+01    -  1.95e-05 4.17e-04h  1
 101  3.3548424e+01 3.94e+01 5.49e+03  -1.0 2.05e+01    -  1.41e-04 6.07e-05h  1
 102  3.3724453e+01 3.93e+01 5.04e+03  -1.0 2.46e+01    -  9.03e-05 1.09e-03h  1
 103  3.3828908e+01 3.93e+01 5.18e+03  -1.0 2.44e+01    -  9.60e-04 6.54e-04h  1
 104  3.3963666e+01 3.93e+01 5.15e+03  -1.0 2.40e+01    -  7.82e-04 8.53e-04h  1
 105  3.3982691e+01 3.93e+01 5.12e+03  -1.0 2.31e+01    -  8.27e-04 1.24e-04h  1
 106  3.4007628e+01 3.93e+01 4.97e+03  -1.0 2.13e+01    -  6.90e-05 1.72e-04h  1
 107  3.4051792e+01 3.93e+01 5.65e+03  -1.0 2.43e+01    -  1.59e-04 2.74e-04h  1
 108  3.4121364e+01 3.92e+01 4.94e+03  -1.0 2.43e+01    -  8.44e-04 4.30e-04h  1
 109  3.4262915e+01 3.92e+01 5.26e+03  -1.0 2.40e+01    -  3.88e-04 8.83e-04h  1
iter    objective    inf_pr   inf_du lg(mu)  ||d||  lg(rg) alpha_du alpha_pr  ls
 110  3.4375254e+01 3.92e+01 6.17e+03  -1.0 2.73e+01    -  2.59e-05 7.19e-04h  1
 111  3.4417063e+01 3.92e+01 6.18e+03  -1.0 2.31e+01    -  6.81e-04 2.71e-04h  1
 112  3.4419772e+01 3.92e+01 6.18e+03  -1.0 1.93e+01    -  1.11e-04 2.01e-05h  1
 113  3.4517323e+01 3.91e+01 6.18e+03  -1.0 2.80e+01    -  3.83e-05 6.23e-04h  1
 114  3.4591985e+01 3.91e+01 6.18e+03  -1.0 3.14e+01    -  6.23e-04 4.82e-04h  1
Reallocating memory for MA57: lfact (106702)
 115  3.4667590e+01 3.91e+01 6.17e+03  -1.0 2.71e+01    -  5.14e-04 5.02e-04h  1
 116  3.4708713e+01 3.91e+01 6.17e+03  -1.0 2.68e+01    -  7.12e-04 2.81e-04h  1
 117  3.4794634e+01 3.91e+01 6.17e+03  -1.0 3.83e+01    -  4.79e-04 6.01e-04h  1
 118  3.4806080e+01 3.91e+01 6.17e+03  -1.0 3.04e+01    -  3.89e-04 8.33e-05h  1
 119  3.4812039e+01 3.91e+01 6.17e+03  -1.0 3.31e+01    -  4.46e-05 4.83e-05h  1
iter    objective    inf_pr   inf_du lg(mu)  ||d||  lg(rg) alpha_du alpha_pr  ls
 120  3.4889513e+01 3.90e+01 6.16e+03  -1.0 4.35e+01    -  4.36e-05 5.45e-04h  1
 121  3.4916710e+01 3.90e+01 6.16e+03  -1.0 3.11e+01    -  3.33e-04 1.94e-04h  1
 122  3.4981650e+01 3.90e+01 6.16e+03  -1.0 4.88e+01    -  3.63e-04 4.77e-04h  1
 123  3.5008852e+01 3.90e+01 6.16e+03  -1.0 3.42e+01    -  2.58e-04 2.05e-04h  1
 124  3.5067558e+01 3.90e+01 6.15e+03  -1.0 5.25e+01    -  3.24e-04 4.54e-04h  1
 125  3.5083254e+01 3.90e+01 6.15e+03  -1.0 3.28e+01    -  2.21e-04 1.25e-04h  1
 126  3.5145278e+01 3.90e+01 6.77e+03  -1.0 5.62e+01    -  2.13e-04 5.04e-04h  1
 127  3.5152027e+01 3.90e+01 6.15e+03  -1.0 2.77e+01    -  1.81e-04 5.66e-05h  1
Reallocating memory for MA57: lfact (112257)
 128  3.5153841e+01 3.90e+01 1.22e+04  -1.0 5.25e+01    -  1.14e-04 1.59e-05h  1
 129  3.5218366e+01 3.89e+01 1.61e+04  -1.0 6.04e+01    -  1.04e-05 5.34e-04h  1
iter    objective    inf_pr   inf_du lg(mu)  ||d||  lg(rg) alpha_du alpha_pr  ls
 130  3.5221158e+01 3.89e+01 1.49e+04  -1.0 2.16e+01    -  1.30e-04 2.39e-05h  1
 131  3.5269714e+01 3.89e+01 2.56e+04  -1.0 6.02e+01    -  5.68e-05 4.19e-04h  1
 132  3.5273612e+01 3.89e+01 1.81e+04  -1.0 5.92e+01    -  1.88e-04 3.56e-05h  1
 133  3.5291402e+01 3.89e+01 1.83e+04  -1.0 5.51e+01    -  1.63e-04 1.66e-04h  1
Reallocating memory for MA57: lfact (118092)
 134r 3.5291402e+01 3.89e+01 1.00e+03   1.6 0.00e+00    -  0.00e+00 2.84e-07R  6
 135r 3.5475039e+01 3.90e+01 1.02e+03   1.6 1.32e+02    -  2.44e-03 4.72e-04f  1
 136r 3.6665125e+01 3.76e+01 1.02e+03   0.9 3.45e+02    -  6.43e-03 3.96e-03f  1
 137r 3.8414479e+01 3.61e+01 1.02e+03   0.9 3.96e+02    -  4.03e-03 3.83e-03f  1
 138r 4.0117274e+01 3.43e+01 1.02e+03   0.9 4.52e+02    -  3.93e-03 3.90e-03f  1
 139  4.0126046e+01 3.43e+01 1.85e+01  -1.0 3.92e+00    -  4.65e-03 3.16e-04f  1
iter    objective    inf_pr   inf_du lg(mu)  ||d||  lg(rg) alpha_du alpha_pr  ls
 140  4.0178016e+01 3.43e+01 3.23e+01  -1.0 4.99e+00    -  7.82e-04 1.36e-03f  1
 141  4.0219309e+01 3.42e+01 8.17e+01  -1.0 5.25e+00    -  4.52e-03 1.02e-03f  1
 142  4.0387073e+01 3.41e+01 5.38e+01  -1.0 5.33e+00    -  1.39e-03 4.04e-03f  1
 143  4.0530602e+01 3.40e+01 6.62e+01  -1.0 5.53e+00    -  1.53e-03 3.34e-03f  1
 144  4.0749442e+01 3.38e+01 9.71e+01  -1.0 6.28e+00    -  3.70e-03 5.01e-03f  1
 145  4.0981865e+01 3.36e+01 1.09e+02  -1.0 6.30e+00    -  4.63e-03 5.21e-03f  1
 146  4.1221992e+01 3.35e+01 9.91e+01  -1.0 6.38e+00    -  5.76e-03 5.30e-03f  1
 147  4.1470067e+01 3.33e+01 6.09e+01  -1.0 6.47e+00    -  7.24e-03 5.37e-03f  1
 148  4.1728068e+01 3.31e+01 5.28e+01  -1.0 6.56e+00    -  9.26e-03 5.44e-03f  1
 149  4.1999290e+01 3.29e+01 1.84e+02  -1.0 6.63e+00    -  1.21e-02 5.51e-03f  1
iter    objective    inf_pr   inf_du lg(mu)  ||d||  lg(rg) alpha_du alpha_pr  ls
 150  4.2288534e+01 3.27e+01 6.56e+01  -1.0 6.69e+00    -  1.77e-03 5.56e-03h  1
 151  4.2329206e+01 3.27e+01 8.92e+01  -1.0 5.86e+00    -  1.17e-03 8.43e-04h  1
 152  4.2615379e+01 3.25e+01 5.03e+01  -1.0 6.76e+00    -  1.36e-03 5.38e-03h  1
 153  4.2649642e+01 3.25e+01 4.98e+01  -1.0 5.93e+00    -  1.19e-03 6.97e-04h  1
 154  4.2942016e+01 3.23e+01 1.73e+02  -1.0 6.84e+00    -  9.96e-04 5.35e-03h  1
 155  4.2971143e+01 3.23e+01 1.12e+02  -1.0 6.06e+00    -  1.21e-03 5.77e-04h  1
 156  4.3274393e+01 3.21e+01 3.18e+02  -1.0 6.91e+00    -  7.21e-04 5.38e-03h  1
 157  4.3300683e+01 3.21e+01 2.34e+02  -1.0 6.28e+00    -  1.26e-03 5.01e-04h  1
 158  4.3620456e+01 3.19e+01 4.93e+02  -1.0 7.14e+00    -  5.39e-04 5.47e-03h  1
 159  4.3649153e+01 3.19e+01 3.75e+02  -1.0 6.69e+00    -  1.51e-03 5.15e-04h  1
iter    objective    inf_pr   inf_du lg(mu)  ||d||  lg(rg) alpha_du alpha_pr  ls
 160  4.4028423e+01 3.17e+01 7.55e+02  -1.0 7.44e+00    -  5.03e-04 6.20e-03h  1
 161  4.4198786e+01 3.16e+01 8.75e+02  -1.0 7.46e+00    -  1.24e-03 2.76e-03h  1
 162  4.4529030e+01 3.15e+01 9.30e+02  -1.0 7.63e+00    -  4.43e-03 5.24e-03h  1
 163  4.4889505e+01 3.13e+01 9.59e+02  -1.0 7.83e+00    -  5.16e-03 5.55e-03h  1
 164  4.5261534e+01 3.11e+01 1.09e+03  -1.0 7.92e+00    -  4.41e-03 5.64e-03h  1
 165  4.5440232e+01 3.10e+01 1.19e+03  -1.0 7.90e+00    -  1.97e-03 2.70e-03h  1
 166  4.5741232e+01 3.09e+01 1.75e+03  -1.0 7.89e+00    -  8.57e-04 4.55e-03h  1
 167  4.5839261e+01 3.09e+01 1.71e+03  -1.0 7.83e+00    -  1.67e-03 1.49e-03h  1
 168  4.6135854e+01 3.07e+01 1.85e+03  -1.0 7.84e+00    -  3.75e-03 4.48e-03h  1
 169  4.6332373e+01 3.06e+01 2.47e+03  -1.0 7.80e+00    -  7.84e-04 2.97e-03h  1
iter    objective    inf_pr   inf_du lg(mu)  ||d||  lg(rg) alpha_du alpha_pr  ls
 170  4.6575784e+01 3.05e+01 2.70e+03  -1.0 7.78e+00    -  2.98e-03 3.68e-03h  1
 171  4.6744137e+01 3.04e+01 2.56e+03  -1.0 7.73e+00    -  2.82e-03 2.55e-03h  1
 172  4.7029009e+01 3.03e+01 4.90e+03  -1.0 7.72e+00    -  1.32e-03 4.31e-03h  1
 173  4.7234092e+01 3.02e+01 4.36e+03  -1.0 7.71e+00    -  3.45e-03 3.10e-03h  1
 174  4.7246682e+01 3.02e+01 7.55e+03  -1.0 8.19e+00    -  2.07e-03 1.79e-04h  1
 175  4.7254165e+01 3.02e+01 8.59e+03  -1.0 8.29e+00    -  1.81e-04 1.05e-04h  1
 176  4.7282667e+01 3.02e+01 9.70e+03  -1.0 8.29e+00    -  4.72e-04 4.00e-04h  1
 177r 4.7282667e+01 3.02e+01 1.00e+03   1.5 0.00e+00    -  0.00e+00 3.61e-07R  5
 178r 4.7405755e+01 3.01e+01 1.00e+03   1.5 4.90e+02    -  5.93e-04 2.46e-04f  1
 179r 4.7476750e+01 2.97e+01 1.01e+03   0.8 1.31e+03    -  8.28e-04 2.50e-04f  1
iter    objective    inf_pr   inf_du lg(mu)  ||d||  lg(rg) alpha_du alpha_pr  ls
 180r 4.7588301e+01 2.93e+01 1.01e+03   0.8 1.67e+03    -  8.09e-04 2.49e-04f  1
 181r 4.7705703e+01 2.89e+01 1.01e+03   0.8 1.70e+03    -  8.07e-04 2.62e-04f  1
 182r 4.7828380e+01 2.84e+01 1.01e+03   0.8 1.71e+03    -  7.91e-04 2.72e-04f  1
 183r 4.7955421e+01 2.79e+01 1.03e+03   0.8 1.69e+03    -  2.74e-03 2.80e-04f  1
 184r 4.9185634e+01 2.59e+01 1.03e+03   0.8 7.87e+02    -  2.80e-03 2.59e-03f  1
 185  4.9189045e+01 2.59e+01 3.18e+01  -1.0 3.57e+00    -  2.69e-03 1.13e-04f  1
 186  4.9320107e+01 2.58e+01 7.39e+02  -1.0 5.04e+00    -  2.55e-02 2.91e-03f  1
 187  4.9436065e+01 2.58e+01 1.71e+03  -1.0 6.12e+00    -  3.53e-04 2.15e-03h  1
 188  4.9535740e+01 2.57e+01 1.71e+03  -1.0 7.00e+00    -  1.11e-03 1.63e-03h  1
 189  5.0022137e+01 2.55e+01 1.70e+03  -1.0 6.91e+00    -  2.50e-05 7.95e-03h  1
iter    objective    inf_pr   inf_du lg(mu)  ||d||  lg(rg) alpha_du alpha_pr  ls
 190  5.0139495e+01 2.55e+01 1.70e+03  -1.0 6.09e+00    -  2.96e-03 2.14e-03h  1
 191  5.0852621e+01 2.51e+01 1.67e+03  -1.0 6.10e+00    -  7.25e-03 1.29e-02h  1
 192  5.0899512e+01 2.51e+01 1.67e+03  -1.0 5.38e+00    -  1.02e-03 9.60e-04f  1
 193  5.1451751e+01 2.48e+01 1.65e+03  -1.0 5.37e+00    -  1.06e-02 1.13e-02f  1
 194  5.1541801e+01 2.48e+01 1.65e+03  -1.0 4.98e+00    -  9.99e-04 1.97e-03f  1
 195  5.2046607e+01 2.45e+01 1.63e+03  -1.0 4.95e+00    -  1.35e-02 1.11e-02f  1
 196  5.2518889e+01 2.42e+01 1.61e+03  -1.0 4.65e+00    -  1.67e-03 1.10e-02f  1
 197  5.2574708e+01 2.42e+01 1.61e+03  -1.0 4.38e+00    -  2.69e-03 1.38e-03f  1
 198  5.3191231e+01 2.38e+01 1.08e+04  -1.0 4.41e+00    -  5.21e-04 1.51e-02f  1
 199  5.3520776e+01 2.36e+01 1.07e+04  -1.0 4.01e+00    -  7.06e-03 8.83e-03f  1
iter    objective    inf_pr   inf_du lg(mu)  ||d||  lg(rg) alpha_du alpha_pr  ls
 200  5.3987668e+01 2.33e+01 1.06e+04  -1.0 3.84e+00    -  9.79e-03 1.30e-02f  1
 201  5.4045448e+01 2.33e+01 1.06e+04  -1.0 3.70e+00    -  8.18e-04 1.69e-03f  1
 202  5.4292332e+01 2.31e+01 1.05e+04  -1.0 3.61e+00    -  1.80e-03 7.36e-03f  1
 203  5.4642961e+01 2.29e+01 1.04e+04  -1.0 3.54e+00    -  1.37e-03 1.07e-02f  1
 204  5.5316210e+01 2.24e+01 1.02e+04  -1.0 3.44e+00    -  1.22e-03 2.11e-02f  1
 205  5.5862064e+01 2.20e+01 1.00e+04  -1.0 3.22e+00    -  2.13e-03 1.84e-02f  1
 206  5.6388707e+01 2.15e+01 9.81e+03  -1.0 2.99e+00    -  1.11e-02 1.91e-02f  1
 207  5.7007935e+01 2.10e+01 9.57e+03  -1.0 2.79e+00    -  2.36e-02 2.41e-02f  1
 208  5.7895909e+01 2.02e+01 9.21e+03  -1.0 2.55e+00    -  2.89e-02 3.78e-02f  1
 209  5.8812562e+01 1.93e+01 8.81e+03  -1.0 2.28e+00    -  4.88e-02 4.37e-02f  1
iter    objective    inf_pr   inf_du lg(mu)  ||d||  lg(rg) alpha_du alpha_pr  ls
 210  5.9832395e+01 1.83e+01 8.34e+03  -1.0 2.08e+00    -  5.93e-02 5.32e-02f  1
 211  6.0918181e+01 1.72e+01 7.84e+03  -1.0 1.96e+00    -  6.85e-02 5.98e-02f  1
 212  6.2213203e+01 1.60e+01 7.28e+03  -1.0 1.94e+00    -  7.92e-02 7.15e-02f  1
 213  6.3885702e+01 1.46e+01 6.63e+03  -1.0 1.97e+00    -  1.03e-01 8.97e-02f  1
 214  6.7077682e+01 1.22e+01 5.53e+03  -1.0 2.00e+00    -  1.62e-01 1.65e-01f  1
 215  7.0710274e+01 9.68e+00 4.41e+03  -1.0 1.76e+00    -  2.36e-01 2.04e-01f  1
 216  7.4889238e+01 6.77e+00 3.08e+03  -1.0 1.22e+00    -  2.74e-01 3.00e-01h  1
 217  8.0981787e+01 2.67e+00 1.21e+03  -1.0 8.38e-01    -  3.65e-01 6.06e-01h  1
 218  8.4539864e+01 1.49e+00 6.80e+02  -1.0 7.02e-01    -  1.00e+00 4.40e-01h  1
 219  9.0019533e+01 1.66e-14 7.52e+01  -1.0 4.45e-01    -  1.00e+00 1.00e+00h  1
iter    objective    inf_pr   inf_du lg(mu)  ||d||  lg(rg) alpha_du alpha_pr  ls
 220  9.0824124e+01 1.66e-14 3.12e-01  -1.0 9.87e-02    -  1.00e+00 1.00e+00h  1
 221  9.0314203e+01 1.28e-14 6.24e-02  -1.7 4.01e-02    -  1.00e+00 1.00e+00h  1
 222  8.7380271e+01 1.30e-14 1.11e+02  -2.5 2.32e-01    -  8.71e-01 1.00e+00f  1
 223  8.3745096e+01 1.44e-14 2.71e-02  -2.5 2.92e-01    -  1.00e+00 1.00e+00f  1
 224  8.2100227e+01 1.92e-14 2.40e+01  -3.8 1.50e-01    -  7.08e-01 8.91e-01f  1
 225  8.1989557e+01 1.88e-14 7.38e+00  -3.8 1.75e-02    -  7.02e-01 7.22e-01f  1
 226  8.1973975e+01 2.36e-14 1.94e-01  -3.8 1.47e-02    -  1.00e+00 9.31e-01h  1
 227  8.1973697e+01 2.41e-14 1.12e-04  -3.8 1.25e-02    -  1.00e+00 1.00e+00f  1
 228  8.1897982e+01 2.11e-14 1.56e+00  -5.7 7.81e-03    -  7.62e-01 9.89e-01h  1
 229  8.1898264e+01 2.69e-14 9.89e-02  -5.7 7.74e-03    -  9.39e-01 1.00e+00f  1
iter    objective    inf_pr   inf_du lg(mu)  ||d||  lg(rg) alpha_du alpha_pr  ls
 230  8.1898257e+01 2.92e-14 4.04e-09  -5.7 8.63e-04    -  1.00e+00 1.00e+00h  1
 231  8.1897335e+01 3.24e-14 5.23e-04  -8.6 2.99e-04    -  9.94e-01 1.00e+00h  1
 232  8.1897335e+01 2.09e-14 1.94e-11  -8.6 1.24e-04    -  1.00e+00 1.00e+00h  1

Number of Iterations....: 232

                                   (scaled)                 (unscaled)
Objective...............:   8.1897335380567640e+01    8.1897335380567640e+01
Dual infeasibility......:   1.9353751599689029e-11    1.9353751599689029e-11
Constraint violation....:   2.0926836652446212e-14    2.0926836652446212e-14
Complementarity.........:   2.6003779544016942e-09    2.6003779544016942e-09
Overall NLP error.......:   2.6003779544016942e-09    2.6003779544016942e-09


Number of objective function evaluations             = 244
Number of objective gradient evaluations             = 224
Number of equality constraint evaluations            = 244
Number of inequality constraint evaluations          = 244
Number of equality constraint Jacobian evaluations   = 235
Number of inequality constraint Jacobian evaluations = 235
Number of Lagrangian Hessian evaluations             = 232
Total CPU secs in IPOPT (w/o function evaluations)   =      0.960
Total CPU secs in NLP function evaluations           =      0.230

EXIT: Optimal Solution Found.

************************ CUTEst statistics ************************


 Package used            :  IPOPT
 Problem                 :  CORKSCRW  
 # variables             =            4506
 # constraints           =            3500
 # objective functions   =        0.4690000E+03
 # objective gradients   =        0.2250000E+03
 # objective Hessians    =        0.2310000E+03
 # Hessian-vector prdct  =        0.0000000E+00
 # constraints functions =        0.4810000E+03
 # constraints gradients =        0.2370000E+03
 # constraints Hessians  =        0.2310000E+03
 Exit code               =               0
 Final f                 =   0.8189734E+02
 Set up time             =            0.07 seconds
 Solve time              =            1.37 seconds


******************************************************************

System Time =       1.1699999571 s.
